Maximize
 obj: 3 x1 - 1 x2 - 5 x3
Subject To
 c1: 5 x1 + 1 x2 + 4 x3 <= 7
 c2: - 5 x1 - 1 x2 - 4 x3 <= -7
 c3: 3 x1 + 0 x2 + 2 x3 <= 4
 c4: 1 x1 + 0 x2 - 3 x3 <= 3
 c5: - 1 x1 + 0 x2 + 0 x3 <= 0
 c6: 0 x1 - 1 x2 + 0 x3 <= 0
 c7: 0 x1 + 0 x2 - 1 x3 <= 0
General
 x1 x2 x3
End
